rcpsp/heur_output_bi_constraints/Log=10/heurj30.txt
encoding rcpsp/j30.sm/j3017_3.sm nv: 25050 nc: 67999 enctime: 0.51
encoding rcpsp/j30.sm/j3017_3.sm nv: 9150 nc: 24009 enctime: 0.11
c File: j3017_3.smnaivebi10.wcnf
c optimal
c final solution cost: 60
c CPU time: 0.128872
s OPTIMUM FOUND

c File: j3017_3.smbi10.wcnf
c optimal
c final solution cost: 60
c CPU time: 0.022314
s OPTIMUM FOUND


rcpsp/heur_output_bi_constraints/Log=10/heurj30.txt
encoding rcpsp/j30.sm/j3017_4.sm nv: 20160 nc: 53117 enctime: 0.39
encoding rcpsp/j30.sm/j3017_4.sm nv: 8400 nc: 21533 enctime: 0.10
c File: j3017_4.smnaivebi10.wcnf
c optimal
c final solution cost: 49
c CPU time: 0.171876
s OPTIMUM FOUND

c File: j3017_4.smbi10.wcnf
c optimal
c final solution cost: 49
c CPU time: 0.045013
s OPTIMUM FOUND


rcpsp/heur_output_bi_constraints/Log=10/heurj30.txt
encoding rcpsp/j30.sm/j3017_5.sm nv: 20960 nc: 58765 enctime: 0.45
encoding rcpsp/j30.sm/j3017_5.sm nv: 7205 nc: 19390 enctime: 0.08
c File: j3017_5.smnaivebi10.wcnf
c optimal
c final solution cost: 47
c CPU time: 0.218611
s OPTIMUM FOUND

c File: j3017_5.smbi10.wcnf
c optimal
c final solution cost: 47
c CPU time: 0.044697
s OPTIMUM FOUND


rcpsp/heur_output_bi_constraints/Log=10/heurj30.txt
encoding rcpsp/j30.sm/j3017_6.sm nv: 22378 nc: 63200 enctime: 0.48
encoding rcpsp/j30.sm/j3017_6.sm nv: 9112 nc: 24986 enctime: 0.11
c File: j3017_6.smnaivebi10.wcnf
c optimal
c final solution cost: 54
c CPU time: 0.137438
s OPTIMUM FOUND

c File: j3017_6.smbi10.wcnf
c optimal
c final solution cost: 54
c CPU time: 0.031917
s OPTIMUM FOUND


rcpsp/heur_output_bi_constraints/Log=10/heurj30.txt
encoding rcpsp/j30.sm/j3017_7.sm nv: 22428 nc: 66419 enctime: 0.52
encoding rcpsp/j30.sm/j3017_7.sm nv: 7434 nc: 21080 enctime: 0.09
c File: j3017_7.smnaivebi10.wcnf
c optimal
c final solution cost: 51
c CPU time: 0.272859
s OPTIMUM FOUND

c File: j3017_7.smbi10.wcnf
c optimal
c final solution cost: 51
c CPU time: 0.033513
s OPTIMUM FOUND


rcpsp/heur_output_bi_constraints/Log=10/heurj30.txt
encoding rcpsp/j30.sm/j3017_8.sm nv: 23635 nc: 64489 enctime: 0.48
encoding rcpsp/j30.sm/j3017_8.sm nv: 9860 nc: 26204 enctime: 0.12
c File: j3017_8.smnaivebi10.wcnf
c optimal
c final solution cost: 61
c CPU time: 0.173333
s OPTIMUM FOUND

c File: j3017_8.smbi10.wcnf
c optimal
c final solution cost: 61
c CPU time: 0.044417
s OPTIMUM FOUND


rcpsp/heur_output_bi_constraints/Log=10/heurj30.txt
encoding rcpsp/j30.sm/j3017_9.sm nv: 17290 nc: 44409 enctime: 0.32
encoding rcpsp/j30.sm/j3017_9.sm nv: 7315 nc: 18309 enctime: 0.08
c File: j3017_9.smnaivebi10.wcnf
c optimal
c final solution cost: 48
c CPU time: 0.095922
s OPTIMUM FOUND

c File: j3017_9.smbi10.wcnf
c optimal
c final solution cost: 48
c CPU time: 0.028642
s OPTIMUM FOUND


rcpsp/heur_output_bi_constraints/Log=10/heurj30.txt
encoding rcpsp/j30.sm/j301_7.sm nv: 19519 nc: 51650 enctime: 0.37
encoding rcpsp/j30.sm/j301_7.sm nv: 9563 nc: 24822 enctime: 0.12
c File: j301_7.smnaivebi10.wcnf
c optimal
c final solution cost: 50
c CPU time: 0.100023
s OPTIMUM FOUND

c File: j301_7.smbi10.wcnf
c optimal
c final solution cost: 50
c CPU time: 0.031169
s OPTIMUM FOUND


rcpsp/heur_output_bi_constraints/Log=10/heurj30.txt
encoding rcpsp/j30.sm/j3018_10.sm nv: 21646 nc: 58928 enctime: 0.44
encoding rcpsp/j30.sm/j3018_10.sm nv: 6028 nc: 15608 enctime: 0.06
c File: j3018_10.smnaivebi10.wcnf
c optimal
c final solution cost: 41
c CPU time: 0.154455
s OPTIMUM FOUND

c File: j3018_10.smbi10.wcnf
c optimal
c final solution cost: 41
c CPU time: 0.015997
s OPTIMUM FOUND


rcpsp/heur_output_bi_constraints/Log=10/heurj30.txt
encoding rcpsp/j30.sm/j3018_1.sm nv: 20664 nc: 58265 enctime: 0.46
encoding rcpsp/j30.sm/j3018_1.sm nv: 7056 nc: 19061 enctime: 0.08
c File: j3018_1.smnaivebi10.wcnf
c optimal
c final solution cost: 53
c CPU time: 0.125178
s OPTIMUM FOUND

c File: j3018_1.smbi10.wcnf
c optimal
c final solution cost: 53
c CPU time: 0.022457
s OPTIMUM FOUND


rcpsp/heur_output_bi_constraints/Log=10/heurj30.txt
encoding rcpsp/j30.sm/j3018_2.sm nv: 23572 nc: 64531 enctime: 0.49
encoding rcpsp/j30.sm/j3018_2.sm nv: 7810 nc: 20575 enctime: 0.09
c File: j3018_2.smnaivebi10.wcnf
c optimal
c final solution cost: 51
c CPU time: 0.181530
s OPTIMUM FOUND

c File: j3018_2.smbi10.wcnf
c optimal
c final solution cost: 51
c CPU time: 0.026346
s OPTIMUM FOUND


rcpsp/heur_output_bi_constraints/Log=10/heurj30.txt
encoding rcpsp/j30.sm/j3018_3.sm nv: 21504 nc: 60902 enctime: 0.48
encoding rcpsp/j30.sm/j3018_3.sm nv: 7680 nc: 20942 enctime: 0.09
c File: j3018_3.smnaivebi10.wcnf
c optimal
c final solution cost: 43
c CPU time: 0.160480
s OPTIMUM FOUND

c File: j3018_3.smbi10.wcnf
c optimal
c final solution cost: 43
c CPU time: 0.035023
s OPTIMUM FOUND


rcpsp/heur_output_bi_constraints/Log=10/heurj30.txt
encoding rcpsp/j30.sm/j3018_4.sm nv: 25088 nc: 77190 enctime: 0.63
encoding rcpsp/j30.sm/j3018_4.sm nv: 9344 nc: 27744 enctime: 0.12
c File: j3018_4.smnaivebi10.wcnf
c optimal
c final solution cost: 70
c CPU time: 0.171841
s OPTIMUM FOUND

c File: j3018_4.smbi10.wcnf
c optimal
c final solution cost: 70
c CPU time: 0.035433
s OPTIMUM FOUND


rcpsp/heur_output_bi_constraints/Log=10/heurj30.txt
encoding rcpsp/j30.sm/j3018_5.sm nv: 24966 nc: 68828 enctime: 0.53
encoding rcpsp/j30.sm/j3018_5.sm nv: 10366 nc: 27828 enctime: 0.13
c File: j3018_5.smnaivebi10.wcnf
c optimal
c final solution cost: 52
c CPU time: 0.170064
s OPTIMUM FOUND

c File: j3018_5.smbi10.wcnf
c optimal
c final solution cost: 52
c CPU time: 0.047136
s OPTIMUM FOUND


rcpsp/heur_output_bi_constraints/Log=10/heurj30.txt
encoding rcpsp/j30.sm/j3018_6.sm nv: 28055 nc: 77110 enctime: 0.59
encoding rcpsp/j30.sm/j3018_6.sm nv: 10850 nc: 28936 enctime: 0.13
c File: j3018_6.smnaivebi10.wcnf
c optimal
c final solution cost: 59
c CPU time: 0.197213
s OPTIMUM FOUND

c File: j3018_6.smbi10.wcnf
c optimal
c final solution cost: 59
c CPU time: 0.043177
s OPTIMUM FOUND


rcpsp/heur_output_bi_constraints/Log=10/heurj30.txt
encoding rcpsp/j30.sm/j3018_7.sm nv: 19720 nc: 51935 enctime: 0.39
encoding rcpsp/j30.sm/j3018_7.sm nv: 7072 nc: 17990 enctime: 0.08
c File: j3018_7.smnaivebi10.wcnf
c optimal
c final solution cost: 48
c CPU time: 0.142942
s OPTIMUM FOUND

c File: j3018_7.smbi10.wcnf
c optimal
c final solution cost: 48
c CPU time: 0.020651
s OPTIMUM FOUND


rcpsp/heur_output_bi_constraints/Log=10/heurj30.txt
encoding rcpsp/j30.sm/j3018_8.sm nv: 22848 nc: 63392 enctime: 0.49
encoding rcpsp/j30.sm/j3018_8.sm nv: 8568 nc: 22967 enctime: 0.10
c File: j3018_8.smnaivebi10.wcnf
c optimal
c final solution cost: 52
c CPU time: 0.134683
s OPTIMUM FOUND

c File: j3018_8.smbi10.wcnf
c optimal
c final solution cost: 52
c CPU time: 0.027065
s OPTIMUM FOUND


rcpsp/heur_output_bi_constraints/Log=10/heurj30.txt
encoding rcpsp/j30.sm/j3018_9.sm nv: 21352 nc: 58500 enctime: 0.44
encoding rcpsp/j30.sm/j3018_9.sm nv: 7072 nc: 18600 enctime: 0.08
c File: j3018_9.smnaivebi10.wcnf
c optimal
c final solution cost: 47
c CPU time: 0.151493
s OPTIMUM FOUND

c File: j3018_9.smbi10.wcnf
c optimal
c final solution cost: 47
c CPU time: 0.026019
s OPTIMUM FOUND


rcpsp/heur_output_bi_constraints/Log=10/heurj30.txt
encoding rcpsp/j30.sm/j301_8.sm nv: 21330 nc: 56859 enctime: 0.41
encoding rcpsp/j30.sm/j301_8.sm nv: 7695 nc: 19792 enctime: 0.08
c File: j301_8.smnaivebi10.wcnf
c optimal
c final solution cost: 53
c CPU time: 0.107224
s OPTIMUM FOUND

c File: j301_8.smbi10.wcnf
c optimal
c final solution cost: 53
c CPU time: 0.019869
s OPTIMUM FOUND


rcpsp/heur_output_bi_constraints/Log=10/heurj30.txt
encoding rcpsp/j30.sm/j3019_10.sm nv: 22110 nc: 61276 enctime: 0.48
encoding rcpsp/j30.sm/j3019_10.sm nv: 5762 nc: 15038 enctime: 0.06
c File: j3019_10.smnaivebi10.wcnf
c optimal
c final solution cost: 42
c CPU time: 0.124611
s OPTIMUM FOUND

c File: j3019_10.smbi10.wcnf
c optimal
c final solution cost: 42
c CPU time: 0.012755
s OPTIMUM FOUND


rcpsp/heur_output_bi_constraints/Log=10/heurj30.txt
encoding rcpsp/j30.sm/j3019_1.sm nv: 19448 nc: 50526 enctime: 0.38
encoding rcpsp/j30.sm/j3019_1.sm nv: 6936 nc: 17406 enctime: 0.08
c File: j3019_1.smnaivebi10.wcnf
c optimal
c final solution cost: 34
c CPU time: 0.099295
s OPTIMUM FOUND

c File: j3019_1.smbi10.wcnf
c optimal
c final solution cost: 34
c CPU time: 0.018105
s OPTIMUM FOUND


rcpsp/heur_output_bi_constraints/Log=10/heurj30.txt
encoding rcpsp/j30.sm/j3019_2.sm nv: 32736 nc: 87509 enctime: 0.65
encoding rcpsp/j30.sm/j3019_2.sm nv: 10384 nc: 26803 enctime: 0.15
c File: j3019_2.smnaivebi10.wcnf
c optimal
c final solution cost: 58
c CPU time: 0.165775
s OPTIMUM FOUND

c File: j3019_2.smbi10.wcnf
c optimal
c final solution cost: 58
c CPU time: 0.023958
s OPTIMUM FOUND


rcpsp/heur_output_bi_constraints/Log=10/heurj30.txt
encoding rcpsp/j30.sm/j3019_3.sm nv: 30173 nc: 91929 enctime: 0.73
encoding rcpsp/j30.sm/j3019_3.sm nv: 12012 nc: 35541 enctime: 0.21
c File: j3019_3.smnaivebi10.wcnf
c optimal
c final solution cost: 69
c CPU time: 0.202573
s OPTIMUM FOUND

c File: j3019_3.smbi10.wcnf
c optimal
c final solution cost: 69
c CPU time: 0.047198
s OPTIMUM FOUND


rcpsp/heur_output_bi_constraints/Log=10/heurj30.txt
encoding rcpsp/j30.sm/j3019_4.sm nv: 22052 nc: 56562 enctime: 0.42
encoding rcpsp/j30.sm/j3019_4.sm nv: 6956 nc: 17088 enctime: 0.07
c File: j3019_4.smnaivebi10.wcnf
c optimal
c final solution cost: 39
c CPU time: 0.109802
s OPTIMUM FOUND

c File: j3019_4.smbi10.wcnf
c optimal
c final solution cost: 39
c CPU time: 0.017326
s OPTIMUM FOUND


rcpsp/heur_output_bi_constraints/Log=10/heurj30.txt
encoding rcpsp/j30.sm/j3019_5.sm nv: 23452 nc: 63617 enctime: 0.49
encoding rcpsp/j30.sm/j3019_5.sm nv: 7293 nc: 18982 enctime: 0.08
c File: j3019_5.smnaivebi10.wcnf
c optimal
c final solution cost: 48
c CPU time: 0.168543
s OPTIMUM FOUND

c File: j3019_5.smbi10.wcnf
c optimal
c final solution cost: 48
c CPU time: 0.023753
s OPTIMUM FOUND


rcpsp/heur_output_bi_constraints/Log=10/heurj30.txt
encoding rcpsp/j30.sm/j3019_6.sm nv: 18495 nc: 47409 enctime: 0.35
encoding rcpsp/j30.sm/j3019_6.sm nv: 6615 nc: 16345 enctime: 0.07
c File: j3019_6.smnaivebi10.wcnf
c optimal
c final solution cost: 48
c CPU time: 0.123235
s OPTIMUM FOUND

c File: j3019_6.smbi10.wcnf
c optimal
c final solution cost: 48
c CPU time: 0.017580
s OPTIMUM FOUND


rcpsp/heur_output_bi_constraints/Log=10/heurj30.txt
encoding rcpsp/j30.sm/j3019_7.sm nv: 25551 nc: 68343 enctime: 0.52
encoding rcpsp/j30.sm/j3019_7.sm nv: 8874 nc: 22890 enctime: 0.10
c File: j3019_7.smnaivebi10.wcnf
c optimal
c final solution cost: 57
c CPU time: 0.288101
s OPTIMUM FOUND

c File: j3019_7.smbi10.wcnf
c optimal
c final solution cost: 57
c CPU time: 0.026583
s OPTIMUM FOUND


rcpsp/heur_output_bi_constraints/Log=10/heurj30.txt
encoding rcpsp/j30.sm/j3019_8.sm nv: 28028 nc: 77865 enctime: 0.60
encoding rcpsp/j30.sm/j3019_8.sm nv: 8008 nc: 21185 enctime: 0.09
c File: j3019_8.smnaivebi10.wcnf
c optimal
c final solution cost: 51
c CPU time: 0.189913
s OPTIMUM FOUND

c File: j3019_8.smbi10.wcnf
c optimal
c final solution cost: 51
c CPU time: 0.021687
s OPTIMUM FOUND


rcpsp/heur_output_bi_constraints/Log=10/heurj30.txt
encoding rcpsp/j30.sm/j3019_9.sm nv: 20925 nc: 56189 enctime: 0.43
encoding rcpsp/j30.sm/j3019_9.sm nv: 5400 nc: 13639 enctime: 0.05
c File: j3019_9.smnaivebi10.wcnf
c optimal
c final solution cost: 38
c CPU time: 0.115393
s OPTIMUM FOUND

c File: j3019_9.smbi10.wcnf
c optimal
c final solution cost: 38
c CPU time: 0.012785
s OPTIMUM FOUND


rcpsp/heur_output_bi_constraints/Log=10/heurj30.txt
encoding rcpsp/j30.sm/j301_9.sm nv: 22057 nc: 60137 enctime: 0.44
encoding rcpsp/j30.sm/j301_9.sm nv: 7124 nc: 18717 enctime: 0.08
c File: j301_9.smnaivebi10.wcnf
c optimal
c final solution cost: 49
c CPU time: 0.222799
s OPTIMUM FOUND

c File: j301_9.smbi10.wcnf
c optimal
c final solution cost: 49
c CPU time: 0.030181
s OPTIMUM FOUND


rcpsp/heur_output_bi_constraints/Log=10/heurj30.txt
encoding rcpsp/j30.sm/j3020_10.sm nv: 25254 nc: 60773 enctime: 0.42
encoding rcpsp/j30.sm/j3020_10.sm nv: 6954 nc: 16073 enctime: 0.07
c File: j3020_10.smnaivebi10.wcnf
c optimal
c final solution cost: 37
c CPU time: 0.105055
s OPTIMUM FOUND

c File: j3020_10.smbi10.wcnf
c optimal
c final solution cost: 37
c CPU time: 0.013640
s OPTIMUM FOUND


rcpsp/heur_output_bi_constraints/Log=10/heurj30.txt
encoding rcpsp/j30.sm/j3020_1.sm nv: 33672 nc: 89178 enctime: 0.66
encoding rcpsp/j30.sm/j3020_1.sm nv: 10856 nc: 27798 enctime: 0.16
c File: j3020_1.smnaivebi10.wcnf
c optimal
c final solution cost: 56
c CPU time: 0.164936
s OPTIMUM FOUND

c File: j3020_1.smbi10.wcnf
c optimal
c final solution cost: 56
c CPU time: 0.027009
s OPTIMUM FOUND


rcpsp/heur_output_bi_constraints/Log=10/heurj30.txt
encoding rcpsp/j30.sm/j3020_2.sm nv: 23838 nc: 67922 enctime: 0.53
encoding rcpsp/j30.sm/j3020_2.sm nv: 9727 nc: 26928 enctime: 0.12
c File: j3020_2.smnaivebi10.wcnf
c optimal
c final solution cost: 70
c CPU time: 0.135100
s OPTIMUM FOUND

c File: j3020_2.smbi10.wcnf
c optimal
c final solution cost: 70
c CPU time: 0.026883
s OPTIMUM FOUND


rcpsp/heur_output_bi_constraints/Log=10/heurj30.txt
encoding rcpsp/j30.sm/j3020_3.sm nv: 32398 nc: 87915 enctime: 0.68
encoding rcpsp/j30.sm/j3020_3.sm nv: 8350 nc: 21531 enctime: 0.13
c File: j3020_3.smnaivebi10.wcnf
c optimal
c final solution cost: 49
c CPU time: 0.174808
s OPTIMUM FOUND

c File: j3020_3.smbi10.wcnf
c optimal
c final solution cost: 49
c CPU time: 0.018674
s OPTIMUM FOUND


rcpsp/heur_output_bi_constraints/Log=10/heurj30.txt
encoding rcpsp/j30.sm/j3020_4.sm nv: 23380 nc: 63493 enctime: 0.49
encoding rcpsp/j30.sm/j3020_4.sm nv: 6440 nc: 16545 enctime: 0.07
c File: j3020_4.smnaivebi10.wcnf
c optimal
c final solution cost: 43
c CPU time: 0.130444
s OPTIMUM FOUND

c File: j3020_4.smbi10.wcnf
c optimal
c final solution cost: 43
c CPU time: 0.016219
s OPTIMUM FOUND


rcpsp/heur_output_bi_constraints/Log=10/heurj30.txt
encoding rcpsp/j30.sm/j3020_5.sm nv: 20224 nc: 57135 enctime: 0.44
encoding rcpsp/j30.sm/j3020_5.sm nv: 7936 nc: 21711 enctime: 0.10
c File: j3020_5.smnaivebi10.wcnf
c optimal
c final solution cost: 61
c CPU time: 0.112413
s OPTIMUM FOUND

c File: j3020_5.smbi10.wcnf
c optimal
c final solution cost: 61
c CPU time: 0.020826
s OPTIMUM FOUND


rcpsp/heur_output_bi_constraints/Log=10/heurj30.txt
encoding rcpsp/j30.sm/j3020_6.sm nv: 24047 nc: 67329 enctime: 0.52
encoding rcpsp/j30.sm/j3020_6.sm nv: 8062 nc: 21674 enctime: 0.09
c File: j3020_6.smnaivebi10.wcnf
c optimal
c final solution cost: 51
c CPU time: 0.135342
s OPTIMUM FOUND

c File: j3020_6.smbi10.wcnf
c optimal
c final solution cost: 51
c CPU time: 0.021683
s OPTIMUM FOUND


rcpsp/heur_output_bi_constraints/Log=10/heurj30.txt
encoding rcpsp/j30.sm/j3020_7.sm nv: 22491 nc: 58101 enctime: 0.44
encoding rcpsp/j30.sm/j3020_7.sm nv: 6321 nc: 15531 enctime: 0.06
c File: j3020_7.smnaivebi10.wcnf
c optimal
c final solution cost: 42
c CPU time: 0.114095
s OPTIMUM FOUND

c File: j3020_7.smbi10.wcnf
c optimal
c final solution cost: 42
c CPU time: 0.013696
s OPTIMUM FOUND


rcpsp/heur_output_bi_constraints/Log=10/heurj30.txt
encoding rcpsp/j30.sm/j3020_8.sm nv: 22737 nc: 61016 enctime: 0.46
encoding rcpsp/j30.sm/j3020_8.sm nv: 7436 nc: 19179 enctime: 0.08
c File: j3020_8.smnaivebi10.wcnf
c optimal
c final solution cost: 51
c CPU time: 0.115751
s OPTIMUM FOUND

c File: j3020_8.smbi10.wcnf
c optimal
c final solution cost: 51
c CPU time: 0.017370
s OPTIMUM FOUND


rcpsp/heur_output_bi_constraints/Log=10/heurj30.txt
encoding rcpsp/j30.sm/j3020_9.sm nv: 24964 nc: 63288 enctime: 0.48
encoding rcpsp/j30.sm/j3020_9.sm nv: 7426 nc: 18000 enctime: 0.08
c File: j3020_9.smnaivebi10.wcnf
c optimal
c final solution cost: 41
c CPU time: 0.121372
s OPTIMUM FOUND

c File: j3020_9.smbi10.wcnf
c optimal
c final solution cost: 41
c CPU time: 0.017864
s OPTIMUM FOUND


